(set-logic ALL)
(set-option :produce-models true)
(declare-sort BoundSet 0)
(declare-sort UnboundSet 0)
(set-option :finite-model-find true)
(declare-fun IsPersonallyAttacked (BoundSet) Bool)
(declare-fun ShiftsAttentionFrom (BoundSet) Bool)
(declare-fun DivertsAttention (BoundSet) Bool)
(assert (not (=> (and (exists ((a BoundSet)) (exists ((b BoundSet)) (and (IsPersonallyAttacked a) (ShiftsAttentionFrom b)))) (and (forall ((e BoundSet)) (forall ((d BoundSet)) (=> (IsPersonallyAttacked d) (DivertsAttention e)))) (and (forall ((g BoundSet)) (forall ((f BoundSet)) (=> (IsPersonallyAttacked f) (ShiftsAttentionFrom g)))) (and (forall ((i BoundSet)) (forall ((h BoundSet)) (=> (ShiftsAttentionFrom h) (DivertsAttention i)))) (forall ((k BoundSet)) (forall ((j BoundSet)) (=> (DivertsAttention j) (ShiftsAttentionFrom k)))))))) (exists ((a BoundSet)) (exists ((c BoundSet)) (and (IsPersonallyAttacked a) (DivertsAttention c)))))))
(check-sat)
(get-model)